(set-logic QF_UF)
(declare-fun A0 () Bool)
(declare-fun A1 () Bool)
(declare-fun A2 () Bool)
(declare-fun A3 () Bool)
(declare-fun A4 () Bool)
(declare-fun A5 () Bool)
(declare-fun A6 () Bool)
(declare-fun A7 () Bool)
(declare-fun A8 () Bool)
(declare-fun A9 () Bool)
(declare-fun A10 () Bool)
(declare-fun A11 () Bool)
(declare-fun A12 () Bool)
(declare-fun A13 () Bool)
(declare-fun A14 () Bool)
(declare-fun A15 () Bool)
(declare-fun A16 () Bool)
(declare-fun A17 () Bool)
(declare-fun A18 () Bool)
(declare-fun A19 () Bool)
(declare-fun A20 () Bool)
(declare-fun A21 () Bool)
(declare-fun A22 () Bool)
(declare-fun A23 () Bool)
(declare-fun A24 () Bool)
(assert (let ((.def_0 (not A14))) (let ((.def_1 (not A13))) (let ((.def_2 (or .def_1 .def_0))) (let ((.def_3 (not .def_2))) (let ((.def_4 (not A4))) (let ((.def_5 (or .def_4 A15))) (let ((.def_6 (not .def_5))) (let ((.def_7 (or .def_6 .def_3))) (let ((.def_8 (not .def_7))) (let ((.def_9 (not A17))) (let ((.def_10 (not A19))) (let ((.def_11 (and .def_10 .def_9))) (let ((.def_12 (not .def_11))) (let ((.def_13 (not A8))) (let ((.def_14 (not A23))) (let ((.def_15 (or .def_14 .def_13))) (let ((.def_16 (and .def_15 .def_12))) (let ((.def_17 (and .def_16 .def_8))) (let ((.def_18 (not .def_17))) (let ((.def_19 (or .def_1 A11))) (let ((.def_20 (and A21 .def_1))) (let ((.def_21 (and .def_20 .def_19))) (let ((.def_22 (= A15 A5))) (let ((.def_23 (or A6 A14))) (let ((.def_24 (not .def_23))) (let ((.def_25 (or .def_24 .def_22))) (let ((.def_26 (and .def_25 .def_21))) (let ((.def_27 (or .def_26 .def_18))) (let ((.def_28 (not .def_27))) (let ((.def_29 (not A5))) (let ((.def_30 (not A9))) (let ((.def_31 (and .def_30 .def_29))) (let ((.def_32 (and A6 A18))) (let ((.def_33 (not .def_32))) (let ((.def_34 (and .def_33 .def_31))) (let ((.def_35 (or A22 A12))) (let ((.def_36 (not .def_35))) (let ((.def_37 (and A6 A24))) (let ((.def_38 (or .def_37 .def_36))) (let ((.def_39 (and .def_38 .def_34))) (let ((.def_40 (not A3))) (let ((.def_41 (not A10))) (let ((.def_42 (and .def_41 .def_40))) (let ((.def_43 (not .def_42))) (let ((.def_44 (and A12 A17))) (let ((.def_45 (not .def_44))) (let ((.def_46 (and .def_45 .def_43))) (let ((.def_47 (or A9 .def_41))) (let ((.def_48 (or .def_14 A1))) (let ((.def_49 (not .def_48))) (let ((.def_50 (or .def_49 .def_47))) (let ((.def_51 (or .def_50 .def_46))) (let ((.def_52 (or .def_51 .def_39))) (let ((.def_53 (not .def_52))) (let ((.def_54 (= .def_53 .def_28))) (let ((.def_55 (or A8 .def_29))) (let ((.def_56 (or A22 .def_29))) (let ((.def_57 (not .def_56))) (let ((.def_58 (or .def_57 .def_55))) (let ((.def_59 (not .def_58))) (let ((.def_60 (= A16 .def_0))) (let ((.def_61 (not .def_60))) (let ((.def_62 (not A1))) (let ((.def_63 (or .def_62 A15))) (let ((.def_64 (or .def_63 .def_61))) (let ((.def_65 (and .def_64 .def_59))) (let ((.def_66 (and A3 A18))) (let ((.def_67 (= A6 A9))) (let ((.def_68 (and .def_67 .def_66))) (let ((.def_69 (not .def_68))) (let ((.def_70 (not A22))) (let ((.def_71 (not A24))) (let ((.def_72 (and .def_71 .def_70))) (let ((.def_73 (not .def_72))) (let ((.def_74 (not A15))) (let ((.def_75 (or .def_74 A14))) (let ((.def_76 (not .def_75))) (let ((.def_77 (and .def_76 .def_73))) (let ((.def_78 (not .def_77))) (let ((.def_79 (or .def_78 .def_69))) (let ((.def_80 (and .def_79 .def_65))) (let ((.def_81 (or .def_71 A20))) (let ((.def_82 (or .def_30 .def_29))) (let ((.def_83 (or .def_82 .def_81))) (let ((.def_84 (not .def_83))) (let ((.def_85 (not A7))) (let ((.def_86 (or A19 .def_85))) (let ((.def_87 (and .def_1 .def_62))) (let ((.def_88 (not .def_87))) (let ((.def_89 (or .def_88 .def_86))) (let ((.def_90 (or .def_89 .def_84))) (let ((.def_91 (not A12))) (let ((.def_92 (and A15 .def_91))) (let ((.def_93 (not .def_92))) (let ((.def_94 (and .def_13 A15))) (let ((.def_95 (not .def_94))) (let ((.def_96 (and .def_95 .def_93))) (let ((.def_97 (and .def_29 .def_41))) (let ((.def_98 (not .def_97))) (let ((.def_99 (or A7 A2))) (let ((.def_100 (not .def_99))) (let ((.def_101 (and .def_100 .def_98))) (let ((.def_102 (not .def_101))) (let ((.def_103 (or .def_102 .def_96))) (let ((.def_104 (not .def_103))) (let ((.def_105 (and .def_104 .def_90))) (let ((.def_106 (and .def_105 .def_80))) (let ((.def_107 (= .def_106 .def_54))) (let ((.def_108 (not .def_107))) (let ((.def_109 (or .def_71 A6))) (let ((.def_110 (and A18 .def_14))) (let ((.def_111 (or .def_110 .def_109))) (let ((.def_112 (not .def_111))) (let ((.def_113 (or .def_4 .def_10))) (let ((.def_114 (not .def_113))) (let ((.def_115 (or A9 A0))) (let ((.def_116 (not .def_115))) (let ((.def_117 (and .def_116 .def_114))) (let ((.def_118 (not .def_117))) (let ((.def_119 (and .def_118 .def_112))) (let ((.def_120 (or A2 .def_0))) (let ((.def_121 (not .def_120))) (let ((.def_122 (not A0))) (let ((.def_123 (and .def_122 A19))) (let ((.def_124 (not .def_123))) (let ((.def_125 (or .def_124 .def_121))) (let ((.def_126 (= .def_9 A14))) (let ((.def_127 (or .def_70 A15))) (let ((.def_128 (not .def_127))) (let ((.def_129 (or .def_128 .def_126))) (let ((.def_130 (not .def_129))) (let ((.def_131 (or .def_130 .def_125))) (let ((.def_132 (not .def_131))) (let ((.def_133 (= .def_132 .def_119))) (let ((.def_134 (not .def_133))) (let ((.def_135 (and .def_71 A13))) (let ((.def_136 (not .def_135))) (let ((.def_137 (and A6 A5))) (let ((.def_138 (or .def_137 .def_136))) (let ((.def_139 (not .def_138))) (let ((.def_140 (or .def_91 .def_62))) (let ((.def_141 (not .def_140))) (let ((.def_142 (= .def_62 A9))) (let ((.def_143 (not .def_142))) (let ((.def_144 (and .def_143 .def_141))) (let ((.def_145 (or .def_144 .def_139))) (let ((.def_146 (or .def_85 A18))) (let ((.def_147 (not .def_146))) (let ((.def_148 (or .def_9 A23))) (let ((.def_149 (and .def_148 .def_147))) (let ((.def_150 (not .def_149))) (let ((.def_151 (or .def_85 .def_9))) (let ((.def_152 (not A18))) (let ((.def_153 (and .def_14 .def_152))) (let ((.def_154 (and .def_153 .def_151))) (let ((.def_155 (not .def_154))) (let ((.def_156 (= .def_155 .def_150))) (let ((.def_157 (not .def_156))) (let ((.def_158 (or .def_157 .def_145))) (let ((.def_159 (= .def_158 .def_134))) (let ((.def_160 (or .def_1 A6))) (let ((.def_161 (and .def_152 A1))) (let ((.def_162 (not .def_161))) (let ((.def_163 (and .def_162 .def_160))) (let ((.def_164 (not A16))) (let ((.def_165 (and .def_122 .def_164))) (let ((.def_166 (not A2))) (let ((.def_167 (and A23 .def_166))) (let ((.def_168 (not .def_167))) (let ((.def_169 (or .def_168 .def_165))) (let ((.def_170 (or .def_169 .def_163))) (let ((.def_171 (not .def_170))) (let ((.def_172 (and .def_91 A15))) (let ((.def_173 (not .def_172))) (let ((.def_174 (and A23 A15))) (let ((.def_175 (not .def_174))) (let ((.def_176 (or .def_175 .def_173))) (let ((.def_177 (not .def_176))) (let ((.def_178 (and A7 .def_164))) (let ((.def_179 (or .def_41 A10))) (let ((.def_180 (and .def_179 .def_178))) (let ((.def_181 (or .def_180 .def_177))) (let ((.def_182 (not .def_181))) (let ((.def_183 (and .def_182 .def_171))) (let ((.def_184 (= .def_13 .def_14))) (let ((.def_185 (not .def_184))) (let ((.def_186 (and .def_4 A3))) (let ((.def_187 (or .def_186 .def_185))) (let ((.def_188 (and .def_0 A21))) (let ((.def_189 (and A13 A6))) (let ((.def_190 (not .def_189))) (let ((.def_191 (and .def_190 .def_188))) (let ((.def_192 (not .def_191))) (let ((.def_193 (or .def_192 .def_187))) (let ((.def_194 (or A7 A5))) (let ((.def_195 (not A20))) (let ((.def_196 (and .def_195 .def_14))) (let ((.def_197 (not .def_196))) (let ((.def_198 (or .def_197 .def_194))) (let ((.def_199 (not .def_198))) (let ((.def_200 (and A1 .def_122))) (let ((.def_201 (and .def_166 A12))) (let ((.def_202 (not .def_201))) (let ((.def_203 (or .def_202 .def_200))) (let ((.def_204 (not .def_203))) (let ((.def_205 (and .def_204 .def_199))) (let ((.def_206 (not .def_205))) (let ((.def_207 (= .def_206 .def_193))) (let ((.def_208 (and .def_207 .def_183))) (let ((.def_209 (not .def_208))) (let ((.def_210 (and .def_209 .def_159))) (let ((.def_211 (not .def_210))) (let ((.def_212 (and .def_211 .def_108))) (let ((.def_213 (and .def_70 .def_4))) (let ((.def_214 (not .def_213))) (let ((.def_215 (= .def_40 A11))) (let ((.def_216 (or .def_215 .def_214))) (let ((.def_217 (not .def_216))) (let ((.def_218 (or A0 .def_62))) (let ((.def_219 (not .def_218))) (let ((.def_220 (or .def_41 A13))) (let ((.def_221 (not .def_220))) (let ((.def_222 (and .def_221 .def_219))) (let ((.def_223 (and .def_222 .def_217))) (let ((.def_224 (not A6))) (let ((.def_225 (not A21))) (let ((.def_226 (or .def_225 .def_224))) (let ((.def_227 (and .def_4 A14))) (let ((.def_228 (not .def_227))) (let ((.def_229 (and .def_228 .def_226))) (let ((.def_230 (or A17 A23))) (let ((.def_231 (not .def_230))) (let ((.def_232 (= .def_29 A2))) (let ((.def_233 (not .def_232))) (let ((.def_234 (and .def_233 .def_231))) (let ((.def_235 (and .def_234 .def_229))) (let ((.def_236 (not .def_235))) (let ((.def_237 (or .def_236 .def_223))) (let ((.def_238 (and .def_91 A24))) (let ((.def_239 (not .def_238))) (let ((.def_240 (or .def_62 A22))) (let ((.def_241 (and .def_240 .def_239))) (let ((.def_242 (not .def_241))) (let ((.def_243 (= A22 .def_40))) (let ((.def_244 (or A9 .def_225))) (let ((.def_245 (or .def_244 .def_243))) (let ((.def_246 (and .def_245 .def_242))) (let ((.def_247 (not .def_246))) (let ((.def_248 (and A13 .def_9))) (let ((.def_249 (and A10 A20))) (let ((.def_250 (and .def_249 .def_248))) (let ((.def_251 (not .def_250))) (let ((.def_252 (or A24 A18))) (let ((.def_253 (or A6 A18))) (let ((.def_254 (not .def_253))) (let ((.def_255 (and .def_254 .def_252))) (let ((.def_256 (not .def_255))) (let ((.def_257 (and .def_256 .def_251))) (let ((.def_258 (not .def_257))) (let ((.def_259 (and .def_258 .def_247))) (let ((.def_260 (or .def_259 .def_237))) (let ((.def_261 (and .def_40 A24))) (let ((.def_262 (not .def_261))) (let ((.def_263 (and A15 A22))) (let ((.def_264 (not .def_263))) (let ((.def_265 (= .def_264 .def_262))) (let ((.def_266 (not .def_265))) (let ((.def_267 (and A23 .def_91))) (let ((.def_268 (not .def_267))) (let ((.def_269 (and A20 .def_70))) (let ((.def_270 (or .def_269 .def_268))) (let ((.def_271 (not .def_270))) (let ((.def_272 (or .def_271 .def_266))) (let ((.def_273 (or A13 .def_74))) (let ((.def_274 (not .def_273))) (let ((.def_275 (and A22 A23))) (let ((.def_276 (and .def_275 .def_274))) (let ((.def_277 (not .def_276))) (let ((.def_278 (or A14 .def_0))) (let ((.def_279 (not .def_278))) (let ((.def_280 (or .def_30 .def_122))) (let ((.def_281 (not .def_280))) (let ((.def_282 (or .def_281 .def_279))) (let ((.def_283 (= .def_282 .def_277))) (let ((.def_284 (and .def_283 .def_272))) (let ((.def_285 (or .def_9 .def_225))) (let ((.def_286 (not .def_285))) (let ((.def_287 (and .def_195 A22))) (let ((.def_288 (not .def_287))) (let ((.def_289 (or .def_288 .def_286))) (let ((.def_290 (not .def_289))) (let ((.def_291 (or A13 .def_1))) (let ((.def_292 (= A16 A11))) (let ((.def_293 (or .def_292 .def_291))) (let ((.def_294 (not .def_293))) (let ((.def_295 (and .def_294 .def_290))) (let ((.def_296 (or .def_40 .def_70))) (let ((.def_297 (not .def_296))) (let ((.def_298 (and A6 A21))) (let ((.def_299 (and .def_298 .def_297))) (let ((.def_300 (and A4 .def_164))) (let ((.def_301 (not .def_300))) (let ((.def_302 (or A21 A7))) (let ((.def_303 (not .def_302))) (let ((.def_304 (and .def_303 .def_301))) (let ((.def_305 (or .def_304 .def_299))) (let ((.def_306 (not .def_305))) (let ((.def_307 (and .def_306 .def_295))) (let ((.def_308 (not .def_307))) (let ((.def_309 (or .def_308 .def_284))) (let ((.def_310 (or .def_309 .def_260))) (let ((.def_311 (not .def_310))) (let ((.def_312 (or A18 .def_164))) (let ((.def_313 (and .def_13 .def_195))) (let ((.def_314 (not .def_313))) (let ((.def_315 (or .def_314 .def_312))) (let ((.def_316 (and .def_164 A24))) (let ((.def_317 (or A7 .def_70))) (let ((.def_318 (not .def_317))) (let ((.def_319 (or .def_318 .def_316))) (let ((.def_320 (not .def_319))) (let ((.def_321 (or .def_320 .def_315))) (let ((.def_322 (and .def_9 A18))) (let ((.def_323 (= .def_152 A15))) (let ((.def_324 (and .def_323 .def_322))) (let ((.def_325 (and A9 A4))) (let ((.def_326 (or A3 A10))) (let ((.def_327 (not .def_326))) (let ((.def_328 (or .def_327 .def_325))) (let ((.def_329 (or .def_328 .def_324))) (let ((.def_330 (not .def_329))) (let ((.def_331 (and .def_330 .def_321))) (let ((.def_332 (and .def_62 .def_14))) (let ((.def_333 (= .def_164 .def_224))) (let ((.def_334 (not .def_333))) (let ((.def_335 (and .def_334 .def_332))) (let ((.def_336 (not .def_335))) (let ((.def_337 (and A21 A11))) (let ((.def_338 (and .def_10 .def_224))) (let ((.def_339 (or .def_338 .def_337))) (let ((.def_340 (not .def_339))) (let ((.def_341 (or .def_340 .def_336))) (let ((.def_342 (not .def_341))) (let ((.def_343 (and A5 .def_71))) (let ((.def_344 (not .def_343))) (let ((.def_345 (and .def_9 A23))) (let ((.def_346 (and .def_345 .def_344))) (let ((.def_347 (or A11 .def_122))) (let ((.def_348 (or A18 .def_29))) (let ((.def_349 (not .def_348))) (let ((.def_350 (and .def_349 .def_347))) (let ((.def_351 (and .def_350 .def_346))) (let ((.def_352 (not .def_351))) (let ((.def_353 (or .def_352 .def_342))) (let ((.def_354 (not .def_353))) (let ((.def_355 (or .def_354 .def_331))) (let ((.def_356 (or .def_62 A8))) (let ((.def_357 (and .def_13 A22))) (let ((.def_358 (and .def_357 .def_356))) (let ((.def_359 (not .def_358))) (let ((.def_360 (or .def_195 A15))) (let ((.def_361 (and .def_70 .def_29))) (let ((.def_362 (not .def_361))) (let ((.def_363 (or .def_362 .def_360))) (let ((.def_364 (not .def_363))) (let ((.def_365 (or .def_364 .def_359))) (let ((.def_366 (not .def_365))) (let ((.def_367 (and .def_70 .def_164))) (let ((.def_368 (or .def_224 .def_225))) (let ((.def_369 (or .def_368 .def_367))) (let ((.def_370 (not .def_369))) (let ((.def_371 (and .def_40 .def_0))) (let ((.def_372 (not .def_371))) (let ((.def_373 (and A0 .def_1))) (let ((.def_374 (not .def_373))) (let ((.def_375 (or .def_374 .def_372))) (let ((.def_376 (and .def_375 .def_370))) (let ((.def_377 (and .def_376 .def_366))) (let ((.def_378 (and A10 .def_1))) (let ((.def_379 (= A5 A23))) (let ((.def_380 (not .def_379))) (let ((.def_381 (or .def_380 .def_378))) (let ((.def_382 (or A7 .def_9))) (let ((.def_383 (not .def_382))) (let ((.def_384 (or A1 .def_152))) (let ((.def_385 (not .def_384))) (let ((.def_386 (and .def_385 .def_383))) (let ((.def_387 (or .def_386 .def_381))) (let ((.def_388 (or .def_13 .def_0))) (let ((.def_389 (and .def_62 A22))) (let ((.def_390 (and .def_389 .def_388))) (let ((.def_391 (not .def_390))) (let ((.def_392 (or .def_30 A1))) (let ((.def_393 (not .def_392))) (let ((.def_394 (and .def_70 A13))) (let ((.def_395 (= .def_394 .def_393))) (let ((.def_396 (not .def_395))) (let ((.def_397 (and .def_396 .def_391))) (let ((.def_398 (or .def_397 .def_387))) (let ((.def_399 (not .def_398))) (let ((.def_400 (or .def_399 .def_377))) (let ((.def_401 (and .def_400 .def_355))) (let ((.def_402 (not .def_401))) (let ((.def_403 (= .def_402 .def_311))) (let ((.def_404 (= .def_403 .def_212))) .def_404))))))))))))))))))))))))))))))))))))))))))))))))))))))))))))))))))))))))))))))))))))))))))))))))))))))))))))))))))))))))))))))))))))))))))))))))))))))))))))))))))))))))))))))))))))))))))))))))))))))))))))))))))))))))))))))))))))))))))))))))))))))))))))))))))))))))))))))))))))))))))))))))))))))))))))))))))))))))))))))))))))))))))))))))))))))))))))))))))))))))))))))))))))))))))))))))))))))))))))))))))))))
(check-sat)
